p cnf 14 26
14 13 -12 0
-14 -13 1 0
-14 12 -8 0
14 -11 -4 0
14 9 6 0
14 9 -5 0
-14 -8 -3 0
13 -12 -11 0
-13 -9 -6 0
-13 -9 -3 0
13 7 -3 0
12 -10 -3 0
12 9 -1 0
-12 8 3 0
12 3 2 0
-11 7 2 0
11 -5 2 0
-11 -3 -2 0
11 3 1 0
-11 3 1 0
-10 8 -3 0
9 -3 -1 0
8 -7 -2 0
-8 -5 2 0
-7 -4 3 0
-4 3 -1 0
